QBPP_HJ*_35_025_10_3
35 188 6
34 50 15 15 6 28 43 6 8 32 14 8 39 43 46 39 43 40 18 4 13 29 19 47 20 10 33 50 24 32 7 36 31 12 46
    0    0    0    0    0    0    0    0    0    0    0    0    0   33    0    0    0    0   19   45    0    0    0    0  -28  -23    0  -15   18    0    0  -21    0    0    0
    0    0    0   12    0    0   31    0    0   48    0    0   45  -48    0    0  -19  -16    0    0    0    0    0  -21    0    0   42    0    0    0    0    0    0    0    0
    0    0    0    0    0    0   -3    0   32  -33    0   45    0    0    0    0   41    0    0    0    0    0    0    0    0    0    9    0    0    0   28   21  -48    0   38
    0   12    0    0    0    0    0    0  -25    0    0    0    0    0    0    0  -14    0    0    0    0    0    0    0    0   13    0    0    0    0  -38   42    0  -44    0
    0    0    0    0    0    0    3   38    0    0    0   30   38    0    0  -11    8    0    0    0    0    0    0    0  -23    0    0   -9    0    0   -6  -10    0    0    0
    0    0    0    0    0    0    0    0    0    0    0  -35   31  -32    0    0    0   16    0    0   28    0    0    0    0    0    0    0    0    0    0    0    0    0    0
    0   31   -3    0    3    0    0    0    0  -31    0    0    0    0    0    0    0  -44   36    0   10  -14    0    0    0   12    0    0    4  -17    0  -41    0    0   42
    0    0    0    0   38    0    0    0    0  -42    0    0   42    0    0    0   -9  -44    0   16    0   46    0  -49    0    0    0    0    0    0    0    0    0    0    0
    0    0   32  -25    0    0    0    0    0    9  -35    0  -43    0    0    0    0    0   50    0    8    0    0   26   24    0    0  -24    0    0    0  -13    0    0    0
    0   48  -33    0    0    0  -31  -42    9    0  -28    0   34    0    0  -29    0    0    0    5  -48    0    0   36    0    0    0  -38    0    0    0    0  -24  -13    0
    0    0    0    0    0    0    0    0  -35  -28    0   44    1    0    0    0   18    8    0    0  -36   23    0    0    0    0    0    0    0    0    0   40  -44    0   32
    0    0   45    0   30  -35    0    0    0    0   44    0    0   16    0    0    0   34    0    0    0    0   42    0    0    0   49    0    0  -43  -39    0    0    0    0
    0   45    0    0   38   31    0   42  -43   34    1    0    0    0   -9    0    0    0    0    3    0  -27    0    0    0   37   24    0    0    0    0    0    0    0   27
   33  -48    0    0    0  -32    0    0    0    0    0   16    0    0    0    0    0  -21   -5   10    0    0   36   35    0    0  -11    0    0    2  -34    0    0    0    0
    0    0    0    0    0    0    0    0    0    0    0    0   -9    0    0    0    0    0    0    0    0    0  -11    4    0    0    0    0    0    0    0    0    0    0   25
    0    0    0    0  -11    0    0    0    0  -29    0    0    0    0    0    0    0    0    0   41  -26    0    0    0    0   34    0   44  -22    0   46    0    0  -45    0
    0  -19   41  -14    8    0    0   -9    0    0   18    0    0    0    0    0    0   34    0    0    0    0  -33   23    0  -11    3    0   25   37  -28    0    0    0    0
    0  -16    0    0    0   16  -44  -44    0    0    8   34    0  -21    0    0   34    0    0    0    0    0    0    0  -28    0    0    0   37    0    0    0  -25    0   18
   19    0    0    0    0    0   36    0   50    0    0    0    0   -5    0    0    0    0    0    0    0    0    0    0    0    0    0   14    0    0  -36    0    0    0    0
   45    0    0    0    0    0    0   16    0    5    0    0    3   10    0   41    0    0    0    0    0    0    0    0  -12    6    0    0  -40    0  -45    0    0    0    0
    0    0    0    0    0   28   10    0    8  -48  -36    0    0    0    0  -26    0    0    0    0    0    0  -19    0    0    0    0    0    0    0    0    0    0    0    0
    0    0    0    0    0    0  -14   46    0    0   23    0  -27    0    0    0    0    0    0    0    0    0    0   32    0    0    0  -10    0    0    0    0    0    0   27
    0    0    0    0    0    0    0    0    0    0    0   42    0   36  -11    0  -33    0    0    0  -19    0    0    0    0   21    0   37    0  -48    0    0    0    0    0
    0  -21    0    0    0    0    0  -49   26   36    0    0    0   35    4    0   23    0    0    0    0   32    0    0    0  -36    0  -23    0   47    0    9    0    3   -3
  -28    0    0    0  -23    0    0    0   24    0    0    0    0    0    0    0    0  -28    0  -12    0    0    0    0    0    0    0    0    0   49    0    0  -20   -3    0
  -23    0    0   13    0    0   12    0    0    0    0    0   37    0    0   34  -11    0    0    6    0    0   21  -36    0    0    0  -50    0    0    0   28    0    0    0
    0   42    9    0    0    0    0    0    0    0    0   49   24  -11    0    0    3    0    0    0    0    0    0    0    0    0    0    0  -39    0    0    0    0    0  -10
  -15    0    0    0   -9    0    0    0  -24  -38    0    0    0    0    0   44    0    0   14    0    0  -10   37  -23    0  -50    0    0  -49    0    0  -46  -50    0    0
   18    0    0    0    0    0    4    0    0    0    0    0    0    0    0  -22   25   37    0  -40    0    0    0    0    0    0  -39  -49    0   37    0    0    0    0    0
    0    0    0    0    0    0  -17    0    0    0    0  -43    0    2    0    0   37    0    0    0    0    0  -48   47   49    0    0    0   37    0    0    0    0    0   43
    0    0   28  -38   -6    0    0    0    0    0    0  -39    0  -34    0   46  -28    0  -36  -45    0    0    0    0    0    0    0    0    0    0    0   19    0    0  -21
  -21    0   21   42  -10    0  -41    0  -13    0   40    0    0    0    0    0    0    0    0    0    0    0    0    9    0   28    0  -46    0    0   19    0  -43    0   -5
    0    0  -48    0    0    0    0    0    0  -24  -44    0    0    0    0    0    0  -25    0    0    0    0    0    0  -20    0    0  -50    0    0    0  -43    0    0    0
    0    0    0  -44    0    0    0    0    0  -13    0    0    0    0    0  -45    0    0    0    0    0    0    0    3   -3    0    0    0    0    0    0    0    0    0    0
    0    0   38    0    0    0   42    0    0    0   32    0   27    0   25    0    0   18    0    0    0   27    0   -3    0    0  -10    0    0   43  -21   -5    0    0    0
